
******************************************************************************
This program contains Ipopt, a library for large-scale nonlinear optimization.
 Ipopt is released as open source code under the Eclipse Public License (EPL).
         For more information visit http://projects.coin-or.org/Ipopt

This version of Ipopt was compiled from source code available at
    https://github.com/IDAES/Ipopt as part of the Institute for the Design of
    Advanced Energy Systems Process Systems Engineering Framework (IDAES PSE
    Framework) Copyright (c) 2018-2019. See https://github.com/IDAES/idaes-pse.

This version of Ipopt was compiled using HSL, a collection of Fortran codes
    for large-scale scientific computation.  All technical papers, sales and
    publicity material resulting from use of the HSL codes within IPOPT must
    contain the following acknowledgement:
        HSL, a collection of Fortran codes for large-scale scientific
        computation. See http://www.hsl.rl.ac.uk.
******************************************************************************

This is Ipopt version 3.13.2, running with linear solver ma27.

Number of nonzeros in equality constraint Jacobian...:     1336
Number of nonzeros in inequality constraint Jacobian.:        0
Number of nonzeros in Lagrangian Hessian.............:     1696

Total number of variables............................:      512
                     variables with only lower bounds:      128
                variables with lower and upper bounds:      320
                     variables with only upper bounds:        0
Total number of equality constraints.................:      508
Total number of inequality constraints...............:        0
        inequality constraints with only lower bounds:        0
   inequality constraints with lower and upper bounds:        0
        inequality constraints with only upper bounds:        0

iter    objective    inf_pr   inf_du lg(mu)  ||d||  lg(rg) alpha_du alpha_pr  ls
   0  0.0000000e+00 1.37e+00 1.50e-12  -1.0 0.00e+00    -  0.00e+00 0.00e+00   0
   1  1.6845810e+01 3.89e+00 4.60e+06  -1.0 8.41e+05    -  1.03e-01 4.71e-01h  1
   2  1.6693897e+01 3.89e+00 4.59e+06  -1.0 4.81e+06    -  1.18e-01 1.32e-03h  1
   3  2.0773431e+01 3.67e+00 4.33e+06  -1.0 1.60e+06    -  1.14e-01 5.55e-02h  1
   4  3.0924165e+01 3.28e+00 3.86e+06  -1.0 1.40e+06    -  2.40e-01 1.07e-01h  3
   5  3.6039312e+01 3.03e+00 3.57e+06  -1.0 1.20e+06    -  3.28e-01 7.48e-02h  1
   6  5.9580418e+01 3.16e+00 2.67e+06  -1.0 1.25e+06    -  3.51e-01 2.47e-01h  3
   7  1.3191761e+02 2.67e+00 1.17e+06  -1.0 1.34e+06    -  4.44e-01 4.95e-01h  2
   8  2.1354329e+02 3.55e+00 3.57e+05  -1.0 1.23e+06    -  8.58e-01 4.95e-01h  2
   9  2.1412181e+02 3.52e+00 1.95e+06  -1.0 5.20e+05  -4.0 8.89e-01 7.53e-03h  1
iter    objective    inf_pr   inf_du lg(mu)  ||d||  lg(rg) alpha_du alpha_pr  ls
  10  2.3357637e+02 2.65e+00 4.65e+06  -1.0 5.09e+05  -4.5 8.79e-01 2.47e-01h  3
  11  2.3132512e+02 2.76e+00 3.78e+06  -1.0 2.42e+05  -5.0 4.99e-01 1.25e-01f  3
  12  2.2147955e+02 3.09e+00 4.64e+06  -1.0 9.17e+05  -5.4 2.33e-01 3.89e-02f  3
  13  2.2140827e+02 3.13e+00 4.47e+06  -1.0 1.08e+05  -5.0 8.14e-01 9.07e-02h  3
  14  2.1855178e+02 3.41e+00 4.46e+06  -1.0 2.41e+05  -5.5 4.05e-01 4.78e-02f  3
  15  2.1829678e+02 3.23e+00 4.30e+06  -1.0 8.38e+04  -5.1 1.95e-02 5.43e-02f  3
  16  2.1829692e+02 3.23e+00 4.30e+06  -1.0 2.84e+06    -  9.85e-02 5.76e-05h  1
  17  2.1893136e+02 3.17e+00 4.22e+06  -1.0 1.63e+05  -5.5 9.90e-01 1.78e-02f  5
  18  2.1784777e+02 3.14e+00 4.19e+06  -1.0 4.22e+05  -6.0 1.14e-01 9.92e-03f  4
  19  2.1355384e+02 3.57e+00 4.35e+06  -1.0 1.82e+05  -5.6 2.23e-03 1.04e-01f  1
iter    objective    inf_pr   inf_du lg(mu)  ||d||  lg(rg) alpha_du alpha_pr  ls
  20  2.1355362e+02 3.57e+00 4.34e+06  -1.0 3.03e+04  -4.3 9.91e-01 2.98e-04h  2
  21  2.1361031e+02 3.56e+00 4.33e+06  -1.0 1.67e+05  -4.7 1.00e+00 2.34e-03h  1
  22  2.1751742e+02 3.41e+00 4.19e+06  -1.0 5.41e+05  -5.2 1.00e+00 4.31e-02h  5
  23  2.2030589e+02 3.34e+00 4.06e+06  -1.0 5.16e+05  -5.7 1.00e+00 3.09e-02h  6
  24  2.2034145e+02 3.34e+00 4.06e+06  -1.0 3.95e+05  -6.2 1.00e+00 4.24e-04h 12
  25  2.2036382e+02 3.33e+00 4.06e+06  -1.0 4.63e+05  -6.6 1.00e+00 4.29e-04h 12
  26  2.2036693e+02 3.33e+00 4.06e+06  -1.0 3.49e+05  -6.2 1.00e+00 3.82e-05h 13
  27  2.2463622e+02 3.09e+00 3.73e+06  -1.0 6.19e+05  -6.7 8.44e-01 8.39e-02h  4
  28  2.2635959e+02 2.96e+00 3.59e+06  -1.0 1.06e+06    -  1.00e+00 4.21e-02h  1
  29  2.2665444e+02 2.96e+00 3.59e+06  -1.0 1.43e+07  -6.3 5.70e-02 7.31e-04h  4
iter    objective    inf_pr   inf_du lg(mu)  ||d||  lg(rg) alpha_du alpha_pr  ls
  30  2.2700538e+02 2.95e+00 1.57e+07  -1.0 1.04e+06  -4.0 1.00e+00 4.04e-03h  2
  31  2.2900668e+02 2.84e+00 3.58e+06  -1.0 1.76e+06    -  9.70e-01 4.32e-02h  4
  32  2.3229458e+02 2.79e+00 3.56e+06  -1.0 3.67e+05  -4.5 1.00e+00 5.06e-02h  4
  33  2.3252259e+02 2.78e+00 1.23e+07  -1.0 1.77e+06  -4.1 4.91e-01 2.87e-03h  4
  34  2.3433968e+02 2.75e+00 1.39e+07  -1.0 5.59e+05  -3.7 1.00e+00 2.66e-02h  6
  35  2.3621190e+02 2.77e+00 4.65e+06  -1.0 3.44e+05  -4.1 1.00e+00 3.09e-02h  6
  36  2.3820410e+02 2.73e+00 1.33e+07  -1.0 5.84e+05  -3.7 1.00e+00 2.91e-02h  3
  37  2.4002000e+02 2.83e+00 8.57e+06  -1.0 3.68e+05  -4.2 1.00e+00 3.09e-02h  6
  38  2.4013095e+02 2.83e+00 8.45e+06  -1.0 1.47e+07  -4.7 5.84e-02 2.77e-04h  8
  39  2.5312210e+02 4.04e+00 2.62e+09  -1.0 1.17e+06  -3.3 3.61e-02 1.50e-01w  1
iter    objective    inf_pr   inf_du lg(mu)  ||d||  lg(rg) alpha_du alpha_pr  ls
  40  3.1404169e+02 3.65e+00 2.17e+09  -1.0 3.46e+06    -  9.90e-04 2.33e-01w  1
  41  3.3308054e+02 5.30e+00 2.57e+09  -1.0 6.82e+05  -2.0 1.66e-06 7.29e-02w  1
  42  2.4017313e+02 2.83e+00 8.42e+06  -1.0 2.15e+05  -1.6 3.61e-02 5.85e-04h  8
  43  2.4020101e+02 2.83e+00 2.04e+08  -1.0 3.12e+05  -2.1 1.00e+00 4.50e-04h  1
  44  2.4485247e+02 2.63e+00 2.55e+07  -1.0 5.99e+05    -  9.15e-01 9.44e-02h  4
  45  2.4901555e+02 2.78e+00 4.68e+07  -1.0 2.46e+05  -2.5 1.00e+00 8.49e-02h  1
  46  2.4976283e+02 2.70e+00 3.52e+07  -1.0 3.35e+06    -  7.72e-01 2.76e-02h  4
  47  2.5519627e+02 2.54e+00 3.73e+07  -1.0 1.90e+05  -3.0 1.00e+00 1.36e-01h  3
  48  2.5982617e+02 2.67e+00 3.16e+07  -1.0 1.47e+05  -3.5 1.00e+00 1.24e-01h  4
  49  2.6352781e+02 2.49e+00 2.57e+07  -1.0 8.89e+04  -4.0 1.00e+00 1.24e-01h  4
iter    objective    inf_pr   inf_du lg(mu)  ||d||  lg(rg) alpha_du alpha_pr  ls
  50  2.6558926e+02 2.53e+00 2.33e+07  -1.0 1.45e+05  -4.4 1.00e+00 6.98e-02h  4
  51  2.6773693e+02 2.36e+00 2.71e+07  -1.0 6.95e+05    -  3.56e-01 1.10e-01h  4
  52  2.7037013e+02 2.34e+00 2.89e+07  -1.0 6.06e+05    -  1.79e-02 1.24e-01h  4
  53  2.7560749e+02 2.27e+00 4.08e+07  -1.0 5.38e+05    -  8.20e-05 2.47e-01h  3
  54  2.8264943e+02 2.66e+00 2.61e+07  -1.0 1.14e+05    -  7.48e-04 2.47e-01h  3
  55  2.8030979e+02 2.50e+00 1.85e+08  -1.0 1.21e+05  -1.3 3.92e-03 6.20e-02f  1
  56  2.8028543e+02 2.47e+00 1.83e+08  -1.0 1.60e+04  -1.8 1.00e+00 1.08e-02h  1
  57  2.8027837e+02 2.47e+00 1.83e+08  -1.0 2.51e+04  -2.3 6.77e-01 9.14e-04h  1
  58  2.8027926e+02 2.47e+00 1.83e+08  -1.0 2.94e+05    -  1.00e+00 5.43e-04h  1
  59  2.8062666e+02 2.23e+00 1.44e+08  -1.0 3.35e+05    -  1.00e+00 1.17e-01h  4
iter    objective    inf_pr   inf_du lg(mu)  ||d||  lg(rg) alpha_du alpha_pr  ls
  60  2.8124886e+02 2.09e+00 1.15e+08  -1.0 2.30e+05    -  1.00e+00 1.24e-01h  4
  61  2.8156055e+02 2.16e+00 1.08e+08  -1.0 9.63e+04    -  6.17e-01 6.19e-02h  5
  62  2.8156085e+02 2.16e+00 1.32e+09  -1.0 9.12e+04  -0.9 1.00e+00 8.63e-05h  1
  63  2.8176987e+02 2.10e+00 1.67e+09  -1.0 3.88e+05  -1.4 1.00e+00 4.03e-02h  5
  64  2.8189765e+02 2.07e+00 4.76e+08  -1.0 3.39e+05    -  9.17e-01 3.09e-02h  6
  65  2.8199851e+02 2.08e+00 3.90e+08  -1.0 1.53e+05  -1.9 6.49e-01 1.49e-02h  7
  66  2.8206435e+02 2.10e+00 9.37e+09  -1.0 2.32e+05  -0.6 1.00e+00 2.42e-02h  1
  67  2.8206786e+02 2.10e+00 1.94e+10  -1.0 3.18e+06  -1.0 2.47e-01 1.53e-04h 11
  68  2.8207314e+02 2.09e+00 9.39e+09  -1.0 2.79e+05  -0.6 1.00e+00 1.93e-03h 10
  69  2.8210221e+02 2.09e+00 1.44e+10  -1.0 2.10e+06  -1.1 3.57e-01 1.78e-03h  9
iter    objective    inf_pr   inf_du lg(mu)  ||d||  lg(rg) alpha_du alpha_pr  ls
  70  2.8215605e+02 2.08e+00 3.07e+10  -1.0 1.06e+06  -0.7 1.00e+00 4.04e-03h  8
  71  2.8219410e+02 2.08e+00 5.96e+10  -1.0 9.39e+05  -0.2 7.98e-01 3.64e-03h  8
  72  2.8220169e+02 2.08e+00 5.38e+11  -1.0 3.42e+05   1.1 1.00e+00 1.69e-03h  7
  73  2.8220210e+02 2.08e+00 3.64e+13  -1.0 1.48e+05   3.3 1.00e+00 2.29e-04h  7
  74r 2.8220210e+02 2.08e+00 1.00e+03   0.3 0.00e+00   2.8 0.00e+00 2.58e-07R 21
  75r 2.8220368e+02 2.09e+00 1.04e+03   0.3 9.23e+03    -  3.70e-03 2.21e-03f  1
  76r 2.8220360e+02 1.95e+00 1.03e+03   0.3 9.16e+02    -  3.23e-03 1.97e-03f  1
  77r 2.8220350e+02 1.88e+00 9.35e+02   0.3 6.32e+02    -  1.18e-01 5.96e-03f  1
  78r 2.8220361e+02 2.80e+00 9.29e+02   0.3 3.27e+02    -  4.62e-03 8.16e-03f  1
  79r 2.8220337e+02 2.55e+00 8.18e+02   0.3 2.99e+02    -  1.63e-01 8.89e-02f  1
iter    objective    inf_pr   inf_du lg(mu)  ||d||  lg(rg) alpha_du alpha_pr  ls
  80r 2.8220273e+02 2.23e+00 5.92e+02   0.3 7.77e+01    -  6.01e-01 1.37e-01f  1
  81r 2.8220592e+02 2.63e+00 5.25e+02   0.3 1.39e+02    -  4.68e-01 3.05e-01f  1
  82r 2.8220572e+02 2.61e+00 1.35e+03   0.3 1.28e+02    -  1.98e-01 3.34e-01f  1
  83r 2.8220844e+02 2.90e+00 5.61e+02   0.3 1.79e+02    -  5.17e-01 5.75e-01f  1
  84r 2.8220826e+02 2.73e+00 5.24e+02   0.3 1.33e+02    -  4.61e-01 5.95e-02f  1
  85r 2.8220824e+02 2.17e+00 9.95e+02   0.3 1.97e+02    -  6.37e-01 2.44e-01f  1
  86r 2.8220928e+02 2.20e+00 8.43e+02   0.3 1.51e+02    -  1.95e-01 2.65e-01f  1
  87r 2.8221029e+02 2.73e+00 9.29e+02   0.3 2.09e+02    -  8.03e-01 3.74e-01f  1
  88r 2.8220491e+02 2.19e+00 7.60e+02   0.3 1.76e+02    -  3.06e-01 4.10e-01f  1
  89r 2.8220641e+02 3.33e+00 6.23e+01   0.3 1.70e+02    -  1.00e+00 1.00e+00f  1
iter    objective    inf_pr   inf_du lg(mu)  ||d||  lg(rg) alpha_du alpha_pr  ls
  90r 2.8220515e+02 2.13e+00 4.96e+02  -0.4 1.49e+02    -  1.00e+00 3.60e-01f  1
  91r 2.8220101e+02 2.45e+00 2.24e+03  -0.4 1.12e+03    -  2.53e-01 6.81e-01f  1
  92r 2.8220084e+02 2.14e+00 2.14e+03  -0.4 4.65e+02    -  7.86e-01 1.26e-01f  1
  93r 2.8220532e+02 1.99e+00 3.29e+03  -0.4 1.03e+03    -  8.01e-01 1.29e-01f  1
  94r 2.8220373e+02 2.22e+00 2.68e+03  -0.4 6.13e+02    -  3.50e-01 1.47e-01f  1
  95r 2.8220437e+02 2.13e+00 1.94e+03  -0.4 2.78e+02    -  5.51e-01 4.22e-02f  1
  96r 2.8219519e+02 2.05e+00 1.90e+03  -0.4 1.02e+03    -  1.03e-01 2.63e-01f  1
  97r 2.8219792e+02 1.95e+00 2.82e+03  -0.4 1.55e+03    -  3.10e-01 5.07e-02f  1
  98r 2.8220238e+02 2.30e+00 2.57e+03  -0.4 1.12e+03    -  4.39e-01 1.08e-01f  1
  99r 2.8220225e+02 2.23e+00 1.14e+03  -0.4 7.93e+02    -  2.29e-01 2.66e-02h  1
iter    objective    inf_pr   inf_du lg(mu)  ||d||  lg(rg) alpha_du alpha_pr  ls
 100r 2.8219786e+02 1.84e+00 1.29e+03  -0.4 5.71e+02    -  6.62e-02 1.87e-01h  1
 101  2.8220014e+02 1.84e+00 5.58e+01  -1.0 6.16e+04    -  2.09e-01 8.39e-04h 10
 102  2.8172399e+02 1.46e+00 6.57e+03  -1.0 1.71e+04    -  8.69e-02 2.50e-01H  1
 103  2.8175446e+02 1.45e+00 6.50e+03  -1.0 2.16e+04    -  9.18e-01 1.07e-02h  1
 104  2.8384985e+02 1.51e+00 5.84e+03  -1.0 1.23e+05    -  1.03e-01 1.24e-01h  4
 105  2.8624105e+02 1.71e+00 4.77e+03  -1.0 6.60e+04    -  6.51e-01 2.47e-01h  3
 106  2.8790853e+02 1.66e+00 4.23e+03  -1.0 9.46e+04    -  2.29e-01 1.24e-01h  4
 107  3.2037044e+02 1.23e+00 3.65e+03  -1.0 2.46e+05    -  8.87e-01 8.32e-01h  1
 108  3.2034476e+02 1.21e+00 3.59e+03  -1.0 1.09e+04    -  6.39e-01 1.61e-02h  1
 109  3.1814089e+02 1.89e+00 2.44e+03  -1.0 3.06e+04    -  8.59e-01 4.95e-01f  2
iter    objective    inf_pr   inf_du lg(mu)  ||d||  lg(rg) alpha_du alpha_pr  ls
 110  3.1813424e+02 1.84e+00 3.89e+07  -1.0 1.27e+04   2.4 1.88e-02 2.63e-02h  3
 111  3.1812922e+02 1.80e+00 4.50e+07  -1.0 1.23e+04   1.9 9.41e-01 2.06e-02h  3
 112  3.1812827e+02 1.80e+00 4.49e+07  -1.0 1.21e+04   1.4 7.14e-02 4.07e-03h  5
 113  3.1812815e+02 1.79e+00 4.49e+07  -1.0 1.21e+04   0.9 9.90e-01 5.19e-04h  8
 114  3.1812809e+02 1.79e+00 4.49e+07  -1.0 1.21e+04   0.5 1.49e-01 3.45e-04h  9
 115  3.1811772e+02 1.55e+00 1.21e+07  -1.0 1.21e+04  -0.0 6.91e-01 1.35e-01h  1
 116  3.1811779e+02 1.55e+00 1.21e+07  -1.0 1.01e+04  -0.5 6.26e-01 9.06e-04h  1
 117  3.1811794e+02 1.55e+00 1.21e+07  -1.0 8.41e+03  -1.0 1.00e+00 2.84e-04h  1
 118  3.1820947e+02 1.48e+00 9.14e+06  -1.0 1.26e+04  -1.4 1.00e+00 4.33e-02h  1
 119  3.1821331e+02 1.48e+00 2.16e+07  -1.0 5.61e+06    -  4.86e-02 9.43e-06H  1
iter    objective    inf_pr   inf_du lg(mu)  ||d||  lg(rg) alpha_du alpha_pr  ls
 120  3.2019440e+02 1.48e+00 6.00e+08  -1.0 5.14e+06    -  1.21e-01 3.23e-03H  1
 121  3.1442503e+02 1.44e+00 7.55e+07  -1.0 5.23e+06    -  1.53e-01 2.37e-02f  4
 122  3.1201010e+02 1.43e+00 1.03e+08  -1.0 5.08e+06    -  2.11e-03 1.14e-02f  5
 123  3.1208750e+02 1.43e+00 1.32e+08  -1.0 4.97e+06    -  8.35e-02 1.78e-04H  1
 124  3.1584353e+02 1.41e+00 1.69e+09  -1.0 4.98e+06    -  3.48e-01 7.88e-03H  1
 125  3.1119747e+02 1.38e+00 1.64e+08  -1.0 5.28e+06    -  3.10e-01 2.21e-02f  4
 126  3.0972079e+02 1.37e+00 1.84e+08  -1.0 4.83e+06    -  4.63e-03 1.06e-02f  5
 127  3.1831313e+02 9.64e-01 1.11e+09  -1.0 2.59e+04  -1.9 1.43e-04 9.90e-01h  1
 128  3.1854910e+02 9.25e-01 5.59e+08  -1.0 1.32e+04  -2.4 9.32e-01 4.95e-01h  2
 129  3.1817678e+02 9.24e-01 9.47e+06  -1.0 5.63e+03  -2.9 9.60e-01 9.90e-01h  1
iter    objective    inf_pr   inf_du lg(mu)  ||d||  lg(rg) alpha_du alpha_pr  ls
 130  3.1847227e+02 9.50e-01 9.31e+07  -1.0 1.10e+04  -3.4 9.57e-01 4.95e-01h  2
 131  3.2940750e+02 4.80e-01 2.85e+07  -1.0 3.12e+05    -  4.48e-01 4.95e-01h  2
 132  3.4709284e+02 1.83e-01 5.02e+08  -1.0 2.11e+05    -  3.55e-01 9.90e-01h  1
 133  3.4712754e+02 4.10e-01 2.12e+10  -1.0 2.45e+03  -3.8 7.22e-01 9.90e-01h  1
 134  3.5368905e+02 1.51e-01 4.20e+12  -1.0 9.04e+04    -  4.60e-01 9.90e-01h  1
In iteration 134, 32 Slacks too small, adjusting variable bounds
 135  3.5374522e+02 3.01e-01 2.40e+13  -1.0 2.03e+03  -4.3 9.60e-01 9.90e-01h  1
 136  3.5372376e+02 1.55e-01 3.62e+14  -1.0 2.17e+03  -4.8 5.24e-01 1.00e+00f  1
 137  3.4919055e+02 3.71e-01 1.00e+14  -1.0 6.52e+04    -  7.23e-01 1.00e+00f  1
 138  3.4915849e+02 2.00e-01 4.67e+13  -1.0 2.68e+03  -5.3 5.34e-01 1.00e+00f  1
 139  3.4915976e+02 1.70e-01 3.06e+13  -1.0 2.16e+03  -4.8 3.45e-01 1.11e-01H  1
iter    objective    inf_pr   inf_du lg(mu)  ||d||  lg(rg) alpha_du alpha_pr  ls
 140  2.1405233e+02 1.51e+01 1.92e+13  -1.0 1.69e+06    -  3.73e-01 1.00e+00f  1
 141  2.4572756e+02 1.33e+01 1.44e+13  -1.0 8.22e+05    -  2.48e-01 1.20e-01h  2
 142  2.4560813e+02 1.29e+01 1.40e+13  -1.0 5.11e+04  -5.3 2.87e-02 3.08e-02h  1
 143  2.4561069e+02 1.29e+01 1.40e+13  -1.0 9.50e+04  -5.8 1.12e-03 5.84e-04h  4
 144  2.4917500e+02 7.08e+00 1.40e+13  -1.0 8.77e+04  -6.3 4.82e-04 4.84e-01f  2
 145  2.5417858e+02 5.13e+00 1.37e+13  -1.0 5.92e+04  -6.7 1.79e-02 4.26e-01f  2
 146  2.5582987e+02 1.33e+01 9.54e+02  -1.0 2.45e+04  -6.3 1.00e+00 1.00e+00h  1
 147  2.5675384e+02 9.38e+00 3.34e+03  -1.0 4.62e+04  -5.9 1.00e+00 2.97e-01h  2
 148  2.5631076e+02 8.77e+00 2.92e+03  -1.0 3.51e+04  -6.4 1.00e+00 6.53e-02h  2
 149  2.5729923e+02 5.36e+00 1.86e+03  -1.0 3.01e+04  -6.8 1.00e+00 3.89e-01h  2
iter    objective    inf_pr   inf_du lg(mu)  ||d||  lg(rg) alpha_du alpha_pr  ls
 150  2.5760321e+02 2.97e+00 1.06e+03  -1.0 2.07e+04  -7.3 6.21e-01 1.00e+00h  1
 151  2.5762353e+02 2.82e+00 1.00e+03  -1.0 2.32e+04  -6.9 1.00e+00 4.97e-02h  2
 152  2.5899014e+02 2.11e+00 7.54e+02  -1.0 2.80e+04  -7.4 1.00e+00 2.50e-01h  3
 153  2.5902187e+02 2.64e+00 6.60e+02  -1.0 2.42e+04  -7.9 1.00e+00 1.25e-01h  4
 154  2.6013159e+02 2.43e+00 6.09e+02  -1.0 4.20e+04  -8.3 1.00e+00 8.06e-02h  4
 155  2.6001094e+02 2.10e+00 3.44e+01  -1.0 1.49e+04  -8.8 1.00e+00 1.00e+00f  1
 156  2.4989593e+02 1.59e+01 1.32e+01  -1.0 9.23e+04  -9.3 6.77e-01 1.00e+00f  1
 157  1.9527474e+02 3.65e+01 3.93e+01  -1.0 3.04e+05  -9.8 2.46e-01 1.00e+00f  1
 158  1.9528170e+02 1.18e+02 2.41e+04  -1.0 3.76e+04  -3.9 1.03e-02 4.85e-03h  2
 159  1.9198376e+02 1.21e+02 8.24e+05  -1.0 1.49e+05  -4.4 2.83e-01 5.05e-01h  1
iter    objective    inf_pr   inf_du lg(mu)  ||d||  lg(rg) alpha_du alpha_pr  ls
 160  1.9386366e+02 1.20e+02 8.01e+05  -1.0 8.58e+06  -4.9 1.36e-04 2.79e-03f  2
 161  1.9349420e+02 1.20e+02 7.93e+05  -1.0 1.09e+07  -5.3 1.30e-03 3.22e-04H  1
 162  1.9325373e+02 1.20e+02 7.87e+05  -1.0 1.57e+07  -5.8 1.96e-05 1.78e-03h  3
 163  1.9294248e+02 1.20e+02 7.80e+05  -1.0 1.04e+07  -5.4 2.54e-03 3.17e-04H  1
 164  1.9236435e+02 1.19e+02 7.79e+05  -1.0 1.68e+07  -5.9 3.42e-05 1.73e-03f  3
 165  1.9214154e+02 1.19e+02 7.74e+05  -1.0 1.01e+07  -5.4 2.59e-03 2.75e-04H  1
 166  1.9416508e+02 1.18e+02 6.78e+05  -1.0 1.00e+07  -5.0 4.69e-05 5.04e-03h  2
 167  1.9498525e+02 1.18e+02 6.64e+05  -1.0 9.84e+06  -5.5 1.56e-03 5.86e-04H  1
 168  1.9584566e+02 1.17e+02 6.04e+05  -1.0 1.30e+07  -5.1 1.76e-02 3.55e-03h  2
 169  1.9743824e+02 1.16e+02 5.94e+05  -1.0 1.12e+07  -5.6 8.06e-04 6.54e-04H  1
iter    objective    inf_pr   inf_du lg(mu)  ||d||  lg(rg) alpha_du alpha_pr  ls
 170  1.9865142e+02 1.15e+02 6.11e+05  -1.0 1.16e+07  -4.2 3.69e-05 1.79e-03h  3
 171  1.9914957e+02 1.15e+02 2.93e+07  -1.0 1.51e+07  -4.7 1.55e-03 2.06e-03h  2
 172  1.9796326e+02 1.15e+02 3.35e+08  -1.0 1.16e+07  -1.6 4.22e-04 4.05e-04H  1
 173  1.9893143e+02 1.15e+02 1.21e+09  -1.0 1.28e+07  -1.1 1.67e-02 2.65e-03h  2
 174  1.9845355e+02 1.15e+02 1.58e+09  -1.0 1.19e+07  -1.6 3.84e-04 3.00e-04H  1
 175  1.9857745e+02 1.14e+02 1.64e+09  -1.0 1.77e+07  -2.1 1.78e-05 1.75e-03h  2
 176  1.9819548e+02 1.14e+02 1.82e+09  -1.0 1.10e+07  -1.7 1.47e-03 2.78e-04H  1
 177  1.9908278e+02 1.14e+02 2.29e+09  -1.0 1.22e+07  -1.2 2.29e-05 2.28e-03h  2
 178  1.9895543e+02 1.14e+02 2.51e+09  -1.0 1.22e+07  -1.7 3.88e-04 2.32e-04H  1
 179  1.9836333e+02 1.13e+02 2.50e+09  -1.0 2.60e+07  -2.2 1.43e-05 9.62e-04h  2
iter    objective    inf_pr   inf_du lg(mu)  ||d||  lg(rg) alpha_du alpha_pr  ls
 180  1.9838835e+02 1.13e+02 2.57e+09  -1.0 1.06e+07  -1.8 1.82e-03 2.15e-04H  1
 181  1.9917948e+02 1.13e+02 2.80e+09  -1.0 1.21e+07  -1.3 7.88e-05 1.86e-03h  2
 182  1.9854395e+02 1.13e+02 3.21e+09  -1.0 1.08e+07  -0.9 3.07e-04 2.07e-04H  1
 183  1.9932576e+02 1.13e+02 3.38e+09  -1.0 1.20e+07  -1.4 2.65e-01 1.72e-03h  2
 184  1.9873275e+02 1.13e+02 3.66e+09  -1.0 1.10e+07  -1.0 2.26e-04 1.83e-04H  1
 185  1.9939962e+02 1.12e+02 3.78e+09  -1.0 1.21e+07  -1.4 1.55e-05 1.54e-03h  2
 186  1.9889661e+02 1.12e+02 3.83e+09  -1.0 1.12e+07  -1.9 2.38e-04 1.62e-04H  1
 187  1.9945915e+02 1.12e+02 3.92e+09  -1.0 1.26e+07  -1.5 1.36e-05 1.36e-03h  2
 188  1.9897743e+02 1.12e+02 3.97e+09  -1.0 1.12e+07  -2.0 1.04e-03 1.45e-04H  1
 189  1.9934597e+02 1.12e+02 3.98e+09  -1.0 1.25e+07  -2.5 1.25e-05 1.24e-03f  2
iter    objective    inf_pr   inf_du lg(mu)  ||d||  lg(rg) alpha_du alpha_pr  ls
 190  2.0084048e+02 1.11e+02 3.98e+09  -1.0 2.33e+08  -2.9 4.52e-04 1.61e-04h  1
 191  2.0087518e+02 1.11e+02 3.98e+09  -1.0 1.28e+07  -2.5 6.10e-03 5.97e-05h  1
 192r 2.0087518e+02 1.11e+02 1.00e+03   2.0 0.00e+00  -1.2 0.00e+00 3.82e-07R  5
 193r 2.0087521e+02 2.66e+01 1.00e+03   2.0 5.99e+04    -  2.58e-03 1.83e-03f  1
 194  2.0348857e+02 2.53e+01 3.61e+07  -1.0 1.40e+06    -  6.93e-04 4.88e-02h  1
 195  2.0404839e+02 2.11e+01 9.20e+09  -1.0 6.18e+05  -0.7 1.69e-03 1.64e-01h  3
 196  2.0405192e+02 2.11e+01 9.20e+09  -1.0 1.32e+06  -1.2 2.33e-02 3.08e-04h  3
 197  2.0403888e+02 2.11e+01 9.20e+09  -1.0 1.32e+06  -1.7 1.79e-02 2.32e-04h  3
 198  2.0398274e+02 2.11e+01 9.20e+09  -1.0 3.04e+06  -2.2 1.45e-02 1.74e-04h  3
 199  2.0397523e+02 2.11e+01 9.20e+09  -1.0 1.32e+06  -1.8 5.31e-02 6.55e-05h  4
iter    objective    inf_pr   inf_du lg(mu)  ||d||  lg(rg) alpha_du alpha_pr  ls
 200  1.9608885e+02 2.11e+01 2.70e+13  -1.0 7.23e+07  -2.2 5.94e-04 5.08e-04f  1
 201  1.9478374e+02 2.06e+01 6.99e+12  -1.0 5.23e+05   1.8 1.13e-01 2.15e-02h  1
 202  1.9478374e+02 2.06e+01 6.99e+12  -1.0 1.40e+08   1.3 2.28e-06 3.87e-08H  1
 203r 1.9478374e+02 2.06e+01 1.00e+03   1.3 0.00e+00   0.9 0.00e+00 1.93e-10R  2
 204r 1.9478342e+02 1.07e+01 4.71e+10   1.3 1.51e+04    -  6.13e-03 1.36e-03f  1
 205r 1.9478342e+02 1.07e+01 9.99e+02   1.0 0.00e+00    -  0.00e+00 2.04e-10R  2
 206r 1.9478328e+02 1.28e+01 9.97e+02   1.0 1.07e+04    -  5.46e-03 9.90e-04f  1
 207r 1.9478290e+02 8.93e+00 7.34e+08   1.0 2.20e+03    -  1.72e-02 5.78e-03f  1
 208r 1.9478290e+02 8.93e+00 9.99e+02   1.0 0.00e+00    -  0.00e+00 1.51e-09R  2
 209r 1.9478284e+02 1.07e+01 2.13e+10   1.0 8.93e+03    -  5.34e-02 9.90e-04f  1
MA27BD returned iflag=-4 and requires more memory.
 Increase liw from 21955 to 43910 and la from 25360 to 51198 and factorize again.
iter    objective    inf_pr   inf_du lg(mu)  ||d||  lg(rg) alpha_du alpha_pr  ls
 210r 1.9478284e+02 8.90e+00 1.14e+16   1.0 4.52e-01   9.5 5.84e-01 1.19e-02h  4
WARNING: Problem in step computation; switching to emergency mode.
 211r 1.9478284e+02 8.90e+00 1.14e+16   1.0 4.52e-01  19.4 0.00e+00 0.00e+00R  1
 212r 1.9478284e+02 8.90e+00 2.32e+07   1.0 6.84e-17  19.8 9.90e-01 1.00e+00   0
 213r 1.9478284e+02 8.90e+00 4.65e+03   1.0 2.05e-16  19.4 9.90e-01 1.00e+00   0
 214r 1.9478284e+02 8.90e+00 4.85e+03   1.0 6.43e-16  18.9 9.92e-01 1.00e+00   0
 215r 1.9478284e+02 8.90e+00 2.35e+05   1.0 9.33e-14  18.4 1.00e+00 1.00e+00h  1
 216r 1.9478284e+02 8.90e+00 2.75e+04   1.0 3.28e-14  17.9 1.00e+00 1.00e+00h  1
 217r 1.9478284e+02 8.90e+00 9.10e+04   1.0 3.26e-13  17.4 1.00e+00 1.00e+00h  1
 218r 1.9478284e+02 8.90e+00 2.04e+05   1.0 2.19e-12  17.0 1.00e+00 1.00e+00h  1
 219r 1.9478284e+02 8.90e+00 3.24e+04   1.0 1.04e-12  16.5 1.00e+00 1.00e+00h  1
iter    objective    inf_pr   inf_du lg(mu)  ||d||  lg(rg) alpha_du alpha_pr  ls
 220r 1.9478284e+02 8.90e+00 2.01e+04   1.0 1.94e-12  16.0 1.00e+00 1.00e+00h  1
 221r 1.9478284e+02 8.90e+00 4.86e+03   1.0 1.41e-12  15.5 1.00e+00 1.00e+00h  1
 222r 1.9478284e+02 8.90e+00 4.64e+03   1.0 4.03e-12  15.1 1.00e+00 1.00e+00h  1
 223r 1.9478284e+02 8.90e+00 4.64e+03   1.0 1.21e-11  14.6 1.00e+00 1.00e+00h  1
 224r 1.9478284e+02 8.90e+00 4.64e+03   1.0 3.63e-11  14.1 1.00e+00 1.00e+00h  1
 225r 1.9478284e+02 8.90e+00 4.64e+03   1.0 1.09e-10  13.6 1.00e+00 1.00e+00f  1
 226r 1.9478284e+02 8.90e+00 4.64e+03   1.0 3.27e-10  13.2 1.00e+00 1.00e+00f  1
 227r 1.9478284e+02 8.90e+00 4.64e+03   1.0 9.82e-10  12.7 1.00e+00 1.00e+00f  1
 228r 1.9478284e+02 8.90e+00 4.64e+03   1.0 2.94e-09  12.2 1.00e+00 1.00e+00f  1
 229r 1.9478284e+02 8.90e+00 4.64e+03   1.0 8.83e-09  11.7 1.00e+00 1.00e+00f  1
iter    objective    inf_pr   inf_du lg(mu)  ||d||  lg(rg) alpha_du alpha_pr  ls
 230r 1.9478284e+02 8.90e+00 1.24e+04   1.0 2.65e-08  11.2 1.00e+00 1.00e+00f  1
 231r 1.9478284e+02 8.90e+00 2.18e+04   1.0 7.95e-08  10.8 1.00e+00 2.50e-01f  3
 232r 1.9478284e+02 1.07e+01 1.10e+13   1.0 2.38e-07  10.3 1.00e+00 1.00e+00f  1
WARNING: Problem in step computation; switching to emergency mode.
 233r 1.9478284e+02 1.07e+01 1.10e+13   1.0 2.38e-07  19.5 0.00e+00 0.00e+00R  1
WARNING: Problem in step computation; switching to emergency mode.
Restoration phase is called at point that is almost feasible,
  with constraint violation 0.000000e+00. Abort.
Restoration phase in the restoration phase failed.

Number of Iterations....: 233

                                   (scaled)                 (unscaled)
Objective...............:   1.9478283973822533e+02    1.9478283973822533e+02
Dual infeasibility......:   1.1008109739192098e+13    1.1008109739192098e+13
Constraint violation....:   1.0708906209267317e+01    1.0708906209267317e+01
Complementarity.........:   8.9292474899460021e+00    8.9292474899460021e+00
Overall NLP error.......:   2.8233176682712690e+12    1.1008109739192098e+13


Number of objective function evaluations             = 753
Number of objective gradient evaluations             = 184
Number of equality constraint evaluations            = 753
Number of inequality constraint evaluations          = 0
Number of equality constraint Jacobian evaluations   = 239
Number of inequality constraint Jacobian evaluations = 0
Number of Lagrangian Hessian evaluations             = 234
Total CPU secs in IPOPT (w/o function evaluations)   =      0.645
Total CPU secs in NLP function evaluations           =      9.594

EXIT: Restoration Failed!
